p cnf 134 402
c t mc
3 1 0
3 -2 0
-1 2 -3 0
-3 4 -5 0
3 -4 -5 0
-3 -4 5 0
3 4 5 0
-7 5 0
-7 -6 0
-5 6 7 0
9 -8 0
9 -3 0
8 3 -9 0
-10 11 -12 0
10 -11 -12 0
-10 -11 12 0
10 11 12 0
-9 -12 -13 0
9 12 -13 0
-9 12 13 0
9 -12 13 0
-14 -7 0
-14 -13 0
7 13 14 0
-17 -15 0
-17 16 0
15 -16 17 0
-18 -14 0
-18 17 0
14 -17 18 0
-19 -20 -21 0
19 20 -21 0
-19 20 21 0
19 -20 21 0
-23 21 0
-23 -22 0
-21 22 23 0
26 -24 0
26 25 0
24 -25 -26 0
-28 26 0
-28 27 0
-26 -27 28 0
30 -19 0
30 -29 0
19 29 -30 0
-31 28 0
-31 30 0
-28 -30 31 0
32 31 0
32 5 0
-31 -5 -32 0
-23 -32 -33 0
23 32 -33 0
-23 32 33 0
23 -32 33 0
35 26 0
35 1 0
-26 -1 -35 0
-36 34 0
-36 35 0
-34 -35 36 0
37 3 0
37 -30 0
-3 30 -37 0
-25 6 -38 0
25 -6 -38 0
-25 -6 38 0
25 6 38 0
37 -38 -39 0
-37 38 -39 0
37 38 39 0
-37 -38 39 0
20 -29 -40 0
-20 29 -40 0
20 29 40 0
-20 -29 40 0
-41 39 0
-41 40 0
-39 -40 41 0
36 -41 -42 0
-36 41 -42 0
36 41 42 0
-36 -41 42 0
-43 33 0
-43 -42 0
-33 42 43 0
-44 -18 0
-44 43 0
18 -43 44 0
6 -45 -46 0
-6 45 -46 0
6 45 46 0
-6 -45 46 0
-47 -48 -49 0
47 48 -49 0
-47 48 49 0
47 -48 49 0
-50 49 0
-50 24 0
-49 -24 50 0
50 12 -51 0
-50 -12 -51 0
50 -12 51 0
-50 12 51 0
52 -19 0
52 11 0
19 -11 -52 0
-54 53 0
-54 -1 0
-53 1 54 0
-52 54 -55 0
52 -54 -55 0
-52 -54 55 0
52 54 55 0
56 51 0
56 -55 0
-51 55 -56 0
57 -46 0
57 -56 0
46 56 -57 0
44 57 -58 0
-44 -57 -58 0
44 -57 58 0
-44 57 58 0
-27 9 -59 0
27 -9 -59 0
-27 -9 59 0
27 9 59 0
60 16 0
60 -59 0
-16 59 -60 0
-62 24 0
-62 61 0
-24 -61 62 0
63 -62 0
63 1 0
62 -1 -63 0
-60 -63 -64 0
60 63 -64 0
-60 63 64 0
60 -63 64 0
65 -26 0
65 11 0
26 -11 -65 0
67 65 0
67 66 0
-65 -66 -67 0
68 -64 0
68 -67 0
64 67 -68 0
-69 58 0
-69 68 0
-58 -68 69 0
-16 66 -70 0
16 -66 -70 0
-16 -66 70 0
16 66 70 0
72 8 0
72 71 0
-8 -71 -72 0
73 -70 0
73 -72 0
70 72 -73 0
-74 45 0
-74 -48 0
-45 48 74 0
-75 -74 0
-75 -1 0
74 1 75 0
73 -75 -76 0
-73 75 -76 0
73 75 76 0
-73 -75 76 0
-50 -6 -77 0
50 6 -77 0
-50 6 77 0
50 -6 77 0
-76 77 -78 0
76 -77 -78 0
-76 -77 78 0
76 77 78 0
-47 65 -79 0
47 -65 -79 0
-47 -65 79 0
47 65 79 0
81 -28 0
81 -80 0
28 80 -81 0
82 79 0
82 81 0
-79 -81 -82 0
83 -4 0
83 22 0
4 -22 -83 0
-84 -8 0
-84 -83 0
8 83 84 0
6 -84 -85 0
-6 84 -85 0
6 84 85 0
-6 -84 85 0
-82 -85 -86 0
82 85 -86 0
-82 85 86 0
82 -85 86 0
-78 -86 -87 0
78 86 -87 0
-78 86 87 0
78 -86 87 0
88 -69 0
88 87 0
69 -87 -88 0
89 45 0
89 -53 0
-45 53 -89 0
84 47 -90 0
-84 -47 -90 0
84 -47 90 0
-84 47 90 0
-91 89 0
-91 -90 0
-89 90 91 0
-94 -92 0
-94 93 0
92 -93 94 0
-95 19 0
-95 -61 0
-19 61 95 0
96 -95 0
96 30 0
95 -30 -96 0
-97 28 0
-97 96 0
-28 -96 97 0
-97 -84 -98 0
97 84 -98 0
-97 84 98 0
97 -84 98 0
99 94 0
99 98 0
-94 -98 -99 0
-100 62 0
-100 -50 0
-62 50 100 0
101 99 0
101 100 0
-99 -100 -101 0
102 8 0
102 -8 0
-103 9 0
-103 -65 0
-9 65 103 0
104 -102 0
104 -103 0
102 103 -104 0
50 59 -105 0
-50 -59 -105 0
50 -59 105 0
-50 59 105 0
106 -38 0
106 -105 0
38 105 -106 0
-107 -16 0
-107 106 0
16 -106 107 0
-108 -104 0
-108 107 0
104 -107 108 0
49 93 -109 0
-49 -93 -109 0
49 -93 109 0
-49 93 109 0
-110 -109 0
-110 -61 0
109 61 110 0
-111 66 0
-111 -110 0
-66 110 111 0
111 -31 -112 0
-111 31 -112 0
111 31 112 0
-111 -31 112 0
108 -112 -113 0
-108 112 -113 0
108 112 113 0
-108 -112 113 0
114 101 0
114 113 0
-101 -113 -114 0
-115 91 0
-115 114 0
-91 -114 115 0
116 88 0
116 115 0
-88 -115 -116 0
-117 -12 0
-117 -3 0
12 3 117 0
-118 24 0
-118 24 0
-24 118 0
-119 -117 0
-119 118 0
117 -118 119 0
-120 53 0
-120 -59 0
-53 59 120 0
121 -27 0
121 -61 0
27 61 -121 0
120 121 -122 0
-120 -121 -122 0
120 -121 122 0
-120 121 122 0
123 119 0
123 122 0
-119 -122 -123 0
74 1 -124 0
-74 -1 -124 0
74 -1 124 0
-74 1 124 0
123 -124 -125 0
-123 124 -125 0
123 124 125 0
-123 -124 125 0
84 126 -127 0
-84 -126 -127 0
84 -126 127 0
-84 126 127 0
128 54 0
128 -127 0
-54 127 -128 0
-129 -128 0
-129 24 0
128 -24 129 0
24 130 -131 0
-24 -130 -131 0
24 -130 131 0
-24 130 131 0
132 129 0
132 131 0
-129 -131 -132 0
-133 -125 0
-133 132 0
125 -132 133 0
134 116 0
134 133 0
-116 -133 -134 0
-70 -4 121 -63 88 94 8 0
30 90 64 0
-18 10 47 -45 -133 15 73 123 0
-56 -9 -72 0
-15 2 66 32 0
-134 128 -106 61 53 20 -85 -131 -111 0
14 -119 113 85 0
-73 12 64 -34 0
-9 27 -40 -126 2 -29 -120 78 -108 0
-94 -6 66 40 0
19 -46 109 77 -1 53 49 -103 14 74 0
22 76 124 -49 -51 -72 1 0
111 -23 61 -99 -9 82 0
-19 14 -109 22 0
64 -81 -39 -126 89 -7 22 19 -76 0
61 122 11 23 16 -129 0
110 -31 99 4 11 46 38 132 0
19 -44 -87 0
122 116 33 -31 0
-126 -13 116 10 124 -67 2 117 -44 0
86 4 -23 132 94 0
78 41 -77 10 -69 0
-20 76 -43 54 -96 97 126 0
74 -87 14 61 66 4 0
-1 69 -134 -132 92 -112 -57 19 29 0
32 91 -66 106 -47 -74 12 -23 -41 -4 0
117 37 63 32 -122 -128 -26 -74 0
-120 -4 -89 39 50 22 72 0
-111 -55 -46 13 116 0
66 121 -72 -130 -64 -58 0
-87 70 -34 0
121 -85 16 74 -70 0
-15 -108 8 91 -51 0
-22 9 -128 130 25 39 79 -67 70 17 0
98 83 -36 131 4 66 14 132 -9 0
3 24 44 7 -75 -4 -69 0
85 -79 131 18 0
5 64 106 -26 69 112 -60 41 102 -8 0
-6 80 -53 24 35 -12 0
15 -88 119 -110 81 0
-127 27 56 -29 40 -106 67 0
-105 95 -51 -86 -112 17 0
-67 79 60 131 39 -71 50 76 94 48 0
-134 -128 -101 3 -106 61 -2 -111 0
7 33 24 122 101 20 -88 19 130 0
57 -125 31 35 72 17 0
26 -121 5 0
-5 -97 60 83 108 115 -41 48 85 0
92 22 90 44 8 -89 -60 -55 -121 0
-67 -27 76 -46 -26 -5 28 77 125 -100 0
69 -114 -23 -88 106 -79 89 0
-58 -6 57 -45 0
134 0
